    56
 Generated by Multiwfn (http://sobereva.com/multiwfn)
P      -1.46341100     -0.31031000     -0.79731600
P       1.69887900     -0.52154600     -0.99752800
C       0.84899300     -1.28865700      0.45360400
C      -0.56385900     -1.26256200      0.50169300
C      -1.23059000     -1.94924400      1.52395600
H      -2.32349100     -1.94890600      1.54325600
C      -0.52190900     -2.63862000      2.50497400
H      -1.05904000     -3.17022600      3.29419900
C       0.87063400     -2.64394600      2.47234500
H       1.43756800     -3.17613700      3.24027000
C       1.54803100     -1.97626600      1.45439900
H       2.63955300     -1.99568500      1.43190800
C      -1.83042300      1.27049100      0.07089000
C      -1.97354800      1.39055100      1.45887100
H      -1.85213100      0.51132800      2.09548700
C      -2.25861700      2.62617000      2.03450300
H      -2.36562500      2.70727000      3.11921000
C      -2.40485700      3.75737700      1.23098600
H      -2.62559200      4.72686100      1.68447800
C      -2.26049300      3.64836600     -0.15050400
H      -2.36137600      4.53236000     -0.78471300
C      -1.96972800      2.41266000     -0.72602700
H      -1.83299700      2.33058500     -1.80758000
C      -3.09991600     -1.14556900     -0.76993400
C      -3.16169400     -2.45416500     -1.27406000
H      -2.24692400     -2.94114100     -1.62509100
C      -4.37117300     -3.13958200     -1.32285000
H      -4.40039700     -4.16146800     -1.70912500
C      -5.54509400     -2.52060200     -0.88942600
H      -6.49660098     -3.05586800     -0.93372400
C      -5.49671498     -1.21561700     -0.40538900
H      -6.41157300     -0.72271500     -0.06685500
C      -4.28222800     -0.53098000     -0.34271100
H      -4.25416600      0.48893100      0.04716400
C       1.52525900      1.26908500     -0.62546900
C       1.33157700      1.77898500      0.66450800
H       1.26566100      1.09306400      1.51285600
C       1.20442000      3.15076100      0.86956000
H       1.03775700      3.53505500      1.87840100
C       1.27147900      4.02872000     -0.21117300
H       1.16288200      5.10387700     -0.04934800
C       1.46195200      3.53132500     -1.49974200
H       1.50711100      4.21534400     -2.35083100
C       1.58066500      2.15865700     -1.70565800
H       1.70980400      1.76441900     -2.71755400
C       6.15613498     -1.44090600     -0.05880000
C       5.63130200     -0.20949000      0.32961400
C       4.29522800      0.09860200      0.07479500
C       3.46714200     -0.82180700     -0.57834300
C       4.01146700     -2.04925800     -0.98469300
C       5.34138798     -2.36290600     -0.71629500
H       7.20292201     -1.68018100      0.14374700
H       6.26651002      0.52005100      0.83835500
H       3.89216800      1.06472300      0.38654900
H       3.37945700     -2.76630000     -1.51739600
H       5.74752498     -3.32685400     -1.03274200
