 Entering Gaussian System, Link 0=g16
 Input=h2o.gjf
 Output=h2o.log
 Initial command:
 /home/zhaixy/software/g16/l1.exe "/home/zhaixy/scratch/Gau-93681.inp" -scrdir="/home/zhaixy/scratch/"
 Default is to use a total of  18 processors:
                               18 via shared-memory
                                1 via Linda
 Entering Link 1 = /home/zhaixy/software/g16/l1.exe PID=     93683.
  
 Copyright (c) 1988-2019, Gaussian, Inc.  All Rights Reserved.
  
 This is part of the Gaussian(R) 16 program.  It is based on
 the Gaussian(R) 09 system (copyright 2009, Gaussian, Inc.),
 the Gaussian(R) 03 system (copyright 2003, Gaussian, Inc.),
 the Gaussian(R) 98 system (copyright 1998, Gaussian, Inc.),
 the Gaussian(R) 94 system (copyright 1995, Gaussian, Inc.),
 the Gaussian 92(TM) system (copyright 1992, Gaussian, Inc.),
 the Gaussian 90(TM) system (copyright 1990, Gaussian, Inc.),
 the Gaussian 88(TM) system (copyright 1988, Gaussian, Inc.),
 the Gaussian 86(TM) system (copyright 1986, Carnegie Mellon
 University), and the Gaussian 82(TM) system (copyright 1983,
 Carnegie Mellon University). Gaussian is a federally registered
 trademark of Gaussian, Inc.
  
 This software contains proprietary and confidential information,
 including trade secrets, belonging to Gaussian, Inc.
  
 This software is provided under written license and may be
 used, copied, transmitted, or stored only in accord with that
 written license.
  
 The following legend is applicable only to US Government
 contracts under FAR:
  
                    RESTRICTED RIGHTS LEGEND
  
 Use, reproduction and disclosure by the US Government is
 subject to restrictions as set forth in subparagraphs (a)
 and (c) of the Commercial Computer Software - Restricted
 Rights clause in FAR 52.227-19.
  
 Gaussian, Inc.
 340 Quinnipiac St., Bldg. 40, Wallingford CT 06492
  
  
 ---------------------------------------------------------------
 Warning -- This program may not be used in any manner that
 competes with the business of Gaussian, Inc. or will provide
 assistance to any competitor of Gaussian, Inc.  The licensee
 of this program is prohibited from giving any competitor of
 Gaussian, Inc. access to this program.  By using this program,
 the user acknowledges that Gaussian, Inc. is engaged in the
 business of creating and licensing software in the field of
 computational chemistry and represents and warrants to the
 licensee that it is not a competitor of Gaussian, Inc. and that
 it will not use this program in any manner prohibited above.
 ---------------------------------------------------------------
  

 Cite this work as:
 Gaussian 16, Revision C.01,
 M. J. Frisch, G. W. Trucks, H. B. Schlegel, G. E. Scuseria, 
 M. A. Robb, J. R. Cheeseman, G. Scalmani, V. Barone, 
 G. A. Petersson, H. Nakatsuji, X. Li, M. Caricato, A. V. Marenich, 
 J. Bloino, B. G. Janesko, R. Gomperts, B. Mennucci, H. P. Hratchian, 
 J. V. Ortiz, A. F. Izmaylov, J. L. Sonnenberg, D. Williams-Young, 
 F. Ding, F. Lipparini, F. Egidi, J. Goings, B. Peng, A. Petrone, 
 T. Henderson, D. Ranasinghe, V. G. Zakrzewski, J. Gao, N. Rega, 
 G. Zheng, W. Liang, M. Hada, M. Ehara, K. Toyota, R. Fukuda, 
 J. Hasegawa, M. Ishida, T. Nakajima, Y. Honda, O. Kitao, H. Nakai, 
 T. Vreven, K. Throssell, J. A. Montgomery, Jr., J. E. Peralta, 
 F. Ogliaro, M. J. Bearpark, J. J. Heyd, E. N. Brothers, K. N. Kudin, 
 V. N. Staroverov, T. A. Keith, R. Kobayashi, J. Normand, 
 K. Raghavachari, A. P. Rendell, J. C. Burant, S. S. Iyengar, 
 J. Tomasi, M. Cossi, J. M. Millam, M. Klene, C. Adamo, R. Cammi, 
 J. W. Ochterski, R. L. Martin, K. Morokuma, O. Farkas, 
 J. B. Foresman, and D. J. Fox, Gaussian, Inc., Wallingford CT, 2019.
 
 ******************************************
 Gaussian 16:  ES64L-G16RevC.01  3-Jul-2019
                24-Feb-2026 
 ******************************************
 %mem=100GB
 %nprocs=12
 Will use up to   12 processors via shared memory.
 ------------------------
 #P MP2(full)/aug-cc-pVTZ
 ------------------------
 1/38=1,172=1/1;
 2/12=2,17=6,18=5,40=1/2;
 3/5=16,6=1,7=10,11=9,25=1,30=1/1,2,3;
 4//1;
 5/5=2,38=5/2;
 8/10=90/1;
 9/16=-3/6;
 6/7=2,8=2,9=2,10=2/1;
 99/5=1,9=1/99;
 Leave Link    1 at Tue Feb 24 15:15:56 2026, MaxMem= 13421772800 cpu:               1.1 elap:               0.1
 (Enter /home/zhaixy/software/g16/l101.exe)
 ---------------------
 Generated by Multiwfn
 ---------------------
 Symbolic Z-matrix:
 Charge =  0 Multiplicity = 1
 O                     0.       -0.07579   0. 
 H                     0.86681   0.60144   0. 
 H                    -0.86681   0.60144   0. 
 
 ITRead=  0  0  0
 MicOpt= -1 -1 -1
 NAtoms=      3 NQM=        3 NQMF=       0 NMMI=      0 NMMIF=      0
                NMic=       0 NMicF=      0.
                    Isotopes and Nuclear Properties:
 (Nuclear quadrupole moments (NQMom) in fm**2, nuclear magnetic moments (NMagM)
  in nuclear magnetons)

  Atom         1           2           3
 IAtWgt=          16           1           1
 AtmWgt=  15.9949146   1.0078250   1.0078250
 NucSpn=           0           1           1
 AtZEff=  -0.0000000  -0.0000000  -0.0000000
 NQMom=    0.0000000   0.0000000   0.0000000
 NMagM=    0.0000000   2.7928460   2.7928460
 AtZNuc=   8.0000000   1.0000000   1.0000000
 Leave Link  101 at Tue Feb 24 15:15:56 2026, MaxMem= 13421772800 cpu:               2.5 elap:               0.2
 (Enter /home/zhaixy/software/g16/l202.exe)
                          Input orientation:                          
 ---------------------------------------------------------------------
 Center     Atomic      Atomic             Coordinates (Angstroms)
 Number     Number       Type             X           Y           Z
 ---------------------------------------------------------------------
      1          8           0        0.000000   -0.075790    0.000000
      2          1           0        0.866810    0.601440    0.000000
      3          1           0       -0.866810    0.601440    0.000000
 ---------------------------------------------------------------------
                    Distance matrix (angstroms):
                    1          2          3
     1  O    0.000000
     2  H    1.100000   0.000000
     3  H    1.100000   1.733620   0.000000
 Stoichiometry    H2O
 Framework group  C2V[C2(O),SGV(H2)]
 Deg. of freedom     2
 Full point group                 C2V     NOp   4
 Largest Abelian subgroup         C2V     NOp   4
 Largest concise Abelian subgroup C2      NOp   2
                         Standard orientation:                         
 ---------------------------------------------------------------------
 Center     Atomic      Atomic             Coordinates (Angstroms)
 Number     Number       Type             X           Y           Z
 ---------------------------------------------------------------------
      1          8           0       -0.000000    0.000000    0.135446
      2          1           0        0.000000    0.866810   -0.541784
      3          1           0       -0.000000   -0.866810   -0.541784
 ---------------------------------------------------------------------
 Rotational constants (GHZ):         615.5666571         333.6984850         216.3922931
 Leave Link  202 at Tue Feb 24 15:15:56 2026, MaxMem= 13421772800 cpu:               0.5 elap:               0.0
 (Enter /home/zhaixy/software/g16/l301.exe)
 Standard basis: Aug-CC-pVTZ (5D, 7F)
 Ernie: Thresh=  0.10000D-02 Tol=  0.10000D-05 Strict=F.
 Ernie:  3 primitive shells out of 52 were deleted.
 There are    42 symmetry adapted cartesian basis functions of A1  symmetry.
 There are    12 symmetry adapted cartesian basis functions of A2  symmetry.
 There are    20 symmetry adapted cartesian basis functions of B1  symmetry.
 There are    31 symmetry adapted cartesian basis functions of B2  symmetry.
 There are    35 symmetry adapted basis functions of A1  symmetry.
 There are    12 symmetry adapted basis functions of A2  symmetry.
 There are    18 symmetry adapted basis functions of B1  symmetry.
 There are    27 symmetry adapted basis functions of B2  symmetry.
    92 basis functions,   126 primitive gaussians,   105 cartesian basis functions
     5 alpha electrons        5 beta electrons
       nuclear repulsion energy         8.0023669742 Hartrees.
 IExCor=    0 DFT=F Ex=HF Corr=None ExCW=0 ScaHFX=  1.000000
 ScaDFX=  1.000000  1.000000  1.000000  1.000000 ScalE2=  1.000000  1.000000
 IRadAn=      5 IRanWt=     -1 IRanGd=            0 ICorTp=0 IEmpDi=  4
 NAtoms=    3 NActive=    3 NUniq=    2 SFac= 2.25D+00 NAtFMM=   60 NAOKFM=F Big=F
 Integral buffers will be    131072 words long.
 Raffenetti 1 integral format.
 Two-electron integral symmetry is turned on.
 Leave Link  301 at Tue Feb 24 15:15:56 2026, MaxMem= 13421772800 cpu:               0.4 elap:               0.0
 (Enter /home/zhaixy/software/g16/l302.exe)
 NPDir=0 NMtPBC=     1 NCelOv=     1 NCel=       1 NClECP=     1 NCelD=      1
         NCelK=      1 NCelE2=     1 NClLst=     1 CellRange=     0.0.
 One-electron integrals computed using PRISM.
 One-electron integral symmetry used in STVInt
 NBasis=    92 RedAO= T EigKep=  5.12D-04  NBF=    35    12    18    27
 NBsUse=    92 1.00D-06 EigRej= -1.00D+00 NBFU=    35    12    18    27
 Leave Link  302 at Tue Feb 24 15:15:56 2026, MaxMem= 13421772800 cpu:               1.8 elap:               0.2
 (Enter /home/zhaixy/software/g16/l303.exe)
 DipDrv:  MaxL=1.
 Leave Link  303 at Tue Feb 24 15:15:56 2026, MaxMem= 13421772800 cpu:               0.4 elap:               0.0
 (Enter /home/zhaixy/software/g16/l401.exe)
 ExpMin= 2.53D-02 ExpMax= 1.53D+04 ExpMxC= 5.22D+02 IAcc=3 IRadAn=         5 AccDes= 0.00D+00
 Harris functional with IExCor=  205 and IRadAn=       5 diagonalized for initial guess.
 HarFok:  IExCor=  205 AccDes= 0.00D+00 IRadAn=         5 IDoV= 1 UseB2=F ITyADJ=14
 ICtDFT=  3500011 ScaDFX=  1.000000  1.000000  1.000000  1.000000
 FoFCou: FMM=F IPFlag=           0 FMFlag=      100000 FMFlg1=           0
         NFxFlg=           0 DoJE=T BraDBF=F KetDBF=T FulRan=T
         wScrn=  0.000000 ICntrl=       500 IOpCl=  0 I1Cent=   200000004 NGrid=           0
         NMat0=    1 NMatS0=      1 NMatT0=    0 NMatD0=    1 NMtDS0=    0 NMtDT0=    0
 Petite list used in FoFCou.
 Harris En= -76.1216639229184    
 JPrj=0 DoOrth=F DoCkMO=F.
 Initial guess orbital symmetries:
       Occupied  (A1) (A1) (B2) (A1) (B1)
       Virtual   (A1) (B2) (A1) (B2) (B1) (A1) (B2) (A1) (A2) (A1)
                 (B1) (A1) (B2) (B2) (B2) (A1) (A1) (B1) (A2) (A1)
                 (B1) (B2) (A1) (B1) (A2) (A1) (B2) (B2) (A1) (B1)
                 (B2) (A1) (A2) (B2) (A2) (B1) (A1) (B2) (B2) (A1)
                 (A1) (B1) (A2) (A1) (A1) (B1) (B2) (A1) (A1) (B1)
                 (B2) (A2) (B2) (B2) (A1) (B1) (A2) (A1) (B2) (B2)
                 (B1) (A1) (A2) (B1) (A1) (B2) (A2) (B2) (A1) (B1)
                 (B2) (A1) (A1) (B2) (B1) (A1) (B1) (A2) (B2) (B1)
                 (A1) (A2) (A1) (A1) (B2) (B2) (A1)
 The electronic state of the initial guess is 1-A1.
 Leave Link  401 at Tue Feb 24 15:15:56 2026, MaxMem= 13421772800 cpu:               1.8 elap:               0.2
 (Enter /home/zhaixy/software/g16/l502.exe)
 Keep R1 ints in memory in symmetry-blocked form, NReq=15028443.
 FoFCou: FMM=F IPFlag=           0 FMFlag=           0 FMFlg1=           0
         NFxFlg=           0 DoJE=F BraDBF=F KetDBF=F FulRan=T
         wScrn=  0.000000 ICntrl=       600 IOpCl=  0 I1Cent=           0 NGrid=           0
         NMat0=    1 NMatS0=   4278 NMatT0=    0 NMatD0=    1 NMtDS0=    0 NMtDT0=    0
 Petite list used in FoFCou.
 Closed shell SCF:
 Using DIIS extrapolation, IDIIS=  1040.
 NGot= 13421772800 LenX= 13419405081 LenY= 13419393615
 Requested convergence on RMS density matrix=1.00D-08 within 128 cycles.
 Requested convergence on MAX density matrix=1.00D-06.
 Requested convergence on             energy=1.00D-06.
 No special actions if energy rises.

 Cycle   1  Pass 1  IDiag  1:
 E= -75.9395646382439    
 DIIS: error= 4.66D-02 at cycle   1 NSaved=   1.
 NSaved= 1 IEnMin= 1 EnMin= -75.9395646382439     IErMin= 1 ErrMin= 4.66D-02
 ErrMax= 4.66D-02  0.00D+00 EMaxC= 1.00D-01 BMatC= 1.82D-01 BMatP= 1.82D-01
 IDIUse=3 WtCom= 5.34D-01 WtEn= 4.66D-01
 Coeff-Com:  0.100D+01
 Coeff-En:   0.100D+01
 Coeff:      0.100D+01
 Gap=     0.452 Goal=   None    Shift=    0.000
 GapD=    0.452 DampG=2.000 DampE=0.500 DampFc=1.0000 IDamp=-1.
 RMSDP=2.09D-03 MaxDP=4.54D-02              OVMax= 1.37D-01

 Cycle   2  Pass 1  IDiag  1:
 E= -75.9783604027073     Delta-E=       -0.038795764463 Rises=F Damp=F
 DIIS: error= 3.89D-02 at cycle   2 NSaved=   2.
 NSaved= 2 IEnMin= 2 EnMin= -75.9783604027073     IErMin= 2 ErrMin= 3.89D-02
 ErrMax= 3.89D-02  0.00D+00 EMaxC= 1.00D-01 BMatC= 6.52D-02 BMatP= 1.82D-01
 IDIUse=3 WtCom= 6.11D-01 WtEn= 3.89D-01
 Coeff-Com:  0.348D+00 0.652D+00
 Coeff-En:   0.294D+00 0.706D+00
 Coeff:      0.327D+00 0.673D+00
 Gap=     0.549 Goal=   None    Shift=    0.000
 RMSDP=1.33D-03 MaxDP=3.35D-02 DE=-3.88D-02 OVMax= 6.96D-02

 Cycle   3  Pass 1  IDiag  1:
 E= -76.0196917185199     Delta-E=       -0.041331315813 Rises=F Damp=F
 DIIS: error= 7.21D-03 at cycle   3 NSaved=   3.
 NSaved= 3 IEnMin= 3 EnMin= -76.0196917185199     IErMin= 3 ErrMin= 7.21D-03
 ErrMax= 7.21D-03  0.00D+00 EMaxC= 1.00D-01 BMatC= 2.66D-03 BMatP= 6.52D-02
 IDIUse=3 WtCom= 9.28D-01 WtEn= 7.21D-02
 Coeff-Com: -0.344D-01 0.135D+00 0.899D+00
 Coeff-En:   0.000D+00 0.000D+00 0.100D+01
 Coeff:     -0.319D-01 0.126D+00 0.906D+00
 Gap=     0.524 Goal=   None    Shift=    0.000
 RMSDP=2.28D-04 MaxDP=4.40D-03 DE=-4.13D-02 OVMax= 1.51D-02

 Cycle   4  Pass 1  IDiag  1:
 E= -76.0215732677409     Delta-E=       -0.001881549221 Rises=F Damp=F
 DIIS: error= 9.90D-04 at cycle   4 NSaved=   4.
 NSaved= 4 IEnMin= 4 EnMin= -76.0215732677409     IErMin= 4 ErrMin= 9.90D-04
 ErrMax= 9.90D-04  0.00D+00 EMaxC= 1.00D-01 BMatC= 2.66D-05 BMatP= 2.66D-03
 IDIUse=3 WtCom= 9.90D-01 WtEn= 9.90D-03
 Coeff-Com:  0.797D-02-0.583D-01-0.272D+00 0.132D+01
 Coeff-En:   0.000D+00 0.000D+00 0.000D+00 0.100D+01
 Coeff:      0.789D-02-0.577D-01-0.269D+00 0.132D+01
 Gap=     0.527 Goal=   None    Shift=    0.000
 RMSDP=5.72D-05 MaxDP=1.16D-03 DE=-1.88D-03 OVMax= 3.69D-03

 Cycle   5  Pass 1  IDiag  1:
 E= -76.0216280913895     Delta-E=       -0.000054823649 Rises=F Damp=F
 DIIS: error= 3.00D-04 at cycle   5 NSaved=   5.
 NSaved= 5 IEnMin= 5 EnMin= -76.0216280913895     IErMin= 5 ErrMin= 3.00D-04
 ErrMax= 3.00D-04  0.00D+00 EMaxC= 1.00D-01 BMatC= 1.75D-06 BMatP= 2.66D-05
 IDIUse=3 WtCom= 9.97D-01 WtEn= 3.00D-03
 Coeff-Com:  0.136D-02-0.321D-02-0.199D-01-0.212D+00 0.123D+01
 Coeff-En:   0.000D+00 0.000D+00 0.000D+00 0.000D+00 0.100D+01
 Coeff:      0.135D-02-0.320D-02-0.199D-01-0.211D+00 0.123D+01
 Gap=     0.528 Goal=   None    Shift=    0.000
 RMSDP=1.83D-05 MaxDP=4.49D-04 DE=-5.48D-05 OVMax= 1.36D-03

 Cycle   6  Pass 1  IDiag  1:
 E= -76.0216328725647     Delta-E=       -0.000004781175 Rises=F Damp=F
 DIIS: error= 5.25D-05 at cycle   6 NSaved=   6.
 NSaved= 6 IEnMin= 6 EnMin= -76.0216328725647     IErMin= 6 ErrMin= 5.25D-05
 ErrMax= 5.25D-05  0.00D+00 EMaxC= 1.00D-01 BMatC= 6.25D-08 BMatP= 1.75D-06
 IDIUse=1 WtCom= 1.00D+00 WtEn= 0.00D+00
 Coeff-Com: -0.571D-03 0.272D-02 0.134D-01 0.179D-02-0.352D+00 0.133D+01
 Coeff:     -0.571D-03 0.272D-02 0.134D-01 0.179D-02-0.352D+00 0.133D+01
 Gap=     0.528 Goal=   None    Shift=    0.000
 RMSDP=4.22D-06 MaxDP=1.14D-04 DE=-4.78D-06 OVMax= 3.22D-04

 Cycle   7  Pass 1  IDiag  1:
 E= -76.0216330792738     Delta-E=       -0.000000206709 Rises=F Damp=F
 DIIS: error= 8.61D-06 at cycle   7 NSaved=   7.
 NSaved= 7 IEnMin= 7 EnMin= -76.0216330792738     IErMin= 7 ErrMin= 8.61D-06
 ErrMax= 8.61D-06  0.00D+00 EMaxC= 1.00D-01 BMatC= 2.71D-09 BMatP= 6.25D-08
 IDIUse=1 WtCom= 1.00D+00 WtEn= 0.00D+00
 Coeff-Com:  0.691D-04-0.496D-03-0.270D-02 0.150D-01 0.596D-02-0.234D+00
 Coeff-Com:  0.122D+01
 Coeff:      0.691D-04-0.496D-03-0.270D-02 0.150D-01 0.596D-02-0.234D+00
 Coeff:      0.122D+01
 Gap=     0.528 Goal=   None    Shift=    0.000
 RMSDP=5.48D-07 MaxDP=1.48D-05 DE=-2.07D-07 OVMax= 5.11D-05

 Cycle   8  Pass 1  IDiag  1:
 E= -76.0216330851570     Delta-E=       -0.000000005883 Rises=F Damp=F
 DIIS: error= 2.71D-06 at cycle   8 NSaved=   8.
 NSaved= 8 IEnMin= 8 EnMin= -76.0216330851570     IErMin= 8 ErrMin= 2.71D-06
 ErrMax= 2.71D-06  0.00D+00 EMaxC= 1.00D-01 BMatC= 1.87D-10 BMatP= 2.71D-09
 IDIUse=1 WtCom= 1.00D+00 WtEn= 0.00D+00
 Coeff-Com:  0.807D-05 0.115D-04 0.290D-03-0.576D-02 0.173D-01 0.118D-01
 Coeff-Com: -0.452D+00 0.143D+01
 Coeff:      0.807D-05 0.115D-04 0.290D-03-0.576D-02 0.173D-01 0.118D-01
 Coeff:     -0.452D+00 0.143D+01
 Gap=     0.528 Goal=   None    Shift=    0.000
 RMSDP=2.14D-07 MaxDP=4.77D-06 DE=-5.88D-09 OVMax= 1.46D-05

 Cycle   9  Pass 1  IDiag  1:
 E= -76.0216330856838     Delta-E=       -0.000000000527 Rises=F Damp=F
 DIIS: error= 4.66D-07 at cycle   9 NSaved=   9.
 NSaved= 9 IEnMin= 9 EnMin= -76.0216330856838     IErMin= 9 ErrMin= 4.66D-07
 ErrMax= 4.66D-07  0.00D+00 EMaxC= 1.00D-01 BMatC= 6.25D-12 BMatP= 1.87D-10
 IDIUse=1 WtCom= 1.00D+00 WtEn= 0.00D+00
 Coeff-Com: -0.391D-05 0.823D-05-0.555D-04 0.147D-02-0.458D-02-0.244D-02
 Coeff-Com:  0.143D+00-0.583D+00 0.145D+01
 Coeff:     -0.391D-05 0.823D-05-0.555D-04 0.147D-02-0.458D-02-0.244D-02
 Coeff:      0.143D+00-0.583D+00 0.145D+01
 Gap=     0.528 Goal=   None    Shift=    0.000
 RMSDP=5.49D-08 MaxDP=8.76D-07 DE=-5.27D-10 OVMax= 3.15D-06

 Cycle  10  Pass 1  IDiag  1:
 E= -76.0216330857044     Delta-E=       -0.000000000021 Rises=F Damp=F
 DIIS: error= 9.27D-08 at cycle  10 NSaved=  10.
 NSaved=10 IEnMin=10 EnMin= -76.0216330857044     IErMin=10 ErrMin= 9.27D-08
 ErrMax= 9.27D-08  0.00D+00 EMaxC= 1.00D-01 BMatC= 2.01D-13 BMatP= 6.25D-12
 IDIUse=1 WtCom= 1.00D+00 WtEn= 0.00D+00
 Coeff-Com:  0.110D-05-0.315D-05 0.112D-04-0.355D-03 0.112D-02 0.154D-03
 Coeff-Com: -0.325D-01 0.151D+00-0.526D+00 0.141D+01
 Coeff:      0.110D-05-0.315D-05 0.112D-04-0.355D-03 0.112D-02 0.154D-03
 Coeff:     -0.325D-01 0.151D+00-0.526D+00 0.141D+01
 Gap=     0.528 Goal=   None    Shift=    0.000
 RMSDP=1.14D-08 MaxDP=3.06D-07 DE=-2.06D-11 OVMax= 7.86D-07

 Cycle  11  Pass 1  IDiag  1:
 E= -76.0216330857051     Delta-E=       -0.000000000001 Rises=F Damp=F
 DIIS: error= 8.91D-09 at cycle  11 NSaved=  11.
 NSaved=11 IEnMin=11 EnMin= -76.0216330857051     IErMin=11 ErrMin= 8.91D-09
 ErrMax= 8.91D-09  0.00D+00 EMaxC= 1.00D-01 BMatC= 3.15D-15 BMatP= 2.01D-13
 IDIUse=1 WtCom= 1.00D+00 WtEn= 0.00D+00
 Coeff-Com: -0.164D-06 0.275D-06-0.338D-05 0.670D-04-0.183D-03-0.904D-04
 Coeff-Com:  0.606D-02-0.294D-01 0.115D+00-0.397D+00 0.131D+01
 Coeff:     -0.164D-06 0.275D-06-0.338D-05 0.670D-04-0.183D-03-0.904D-04
 Coeff:      0.606D-02-0.294D-01 0.115D+00-0.397D+00 0.131D+01
 Gap=     0.528 Goal=   None    Shift=    0.000
 RMSDP=1.27D-09 MaxDP=3.38D-08 DE=-7.25D-13 OVMax= 8.33D-08

 SCF Done:  E(RHF) =  -76.0216330857     A.U. after   11 cycles
            NFock= 11  Conv=0.13D-08     -V/T= 2.0067
 KE= 7.551843321452D+01 PE=-1.963897579288D+02 EE= 3.684732465437D+01
 Leave Link  502 at Tue Feb 24 15:15:57 2026, MaxMem= 13421772800 cpu:               3.0 elap:               0.3
 (Enter /home/zhaixy/software/g16/l801.exe)
 Range of M.O.s used for correlation:     1    92
 NBasis=    92 NAE=     5 NBE=     5 NFC=     0 NFV=     0
 NROrb=     92 NOA=     5 NOB=     5 NVA=    87 NVB=    87

 **** Warning!!: The largest alpha MO coefficient is  0.15991959D+02

 Leave Link  801 at Tue Feb 24 15:15:57 2026, MaxMem= 13421772800 cpu:               0.3 elap:               0.0
 (Enter /home/zhaixy/software/g16/l906.exe)
 FulOut=F Deriv=F AODrv=F NAtomX=     3
   MMem=       16775  MDisk=           5 MDiskD=           5
  W3Min=       45675 MinDsk=      181610 NBas6D=         105
 NBas2D=        5790    NTT=        5565    LW2=     2000000
    MDV= 13421709647 MDiskM=      639033 NBas2p=        3790
 Fully in-core method, ICMem=    39866925.
 IMap=   1   2   3   4   5
 JobTyp=1 Pass  1 fully in-core, NPsUse= 12.
 Compute canonical integrals.
 FoFCou: FMM=F IPFlag=           0 FMFlag=           0 FMFlg1=           0
         NFxFlg=           0 DoJE=F BraDBF=F KetDBF=F FulRan=T
         wScrn=  0.000000 ICntrl=       600 IOpCl=  1 I1Cent=           0 NGrid=           0
         NMat0=    1 NMatS0=   5790 NMatT0=    0 NMatD0=    1 NMtDS0=    0 NMtDT0=    0
 Symmetry not used in FoFCou.
 Spin components of T(2) and E(2):
     alpha-alpha T2 =       0.9433573245D-02 E2=     -0.3541130380D-01
     alpha-beta  T2 =       0.5623054661D-01 E2=     -0.2235681374D+00
     beta-beta   T2 =       0.9433573245D-02 E2=     -0.3541130380D-01
 The integrals were generated   1 times.
 ANorm=    0.1036869178D+01
 E2 =    -0.2943907450D+00 EUMP2 =    -0.76316023830677D+02
 Leave Link  906 at Tue Feb 24 15:15:57 2026, MaxMem= 13421772800 cpu:               5.3 elap:               0.4
 (Enter /home/zhaixy/software/g16/l601.exe)
 Copying SCF densities to generalized density rwf, IOpCl= 0 IROHF=0.

 **********************************************************************

            Population analysis using the SCF Density.

 **********************************************************************

 Orbital symmetries:
       Occupied  (A1) (A1) (B2) (A1) (B1)
       Virtual   (A1) (B2) (A1) (B1) (A1) (B2) (B2) (A1) (A2) (B1)
                 (A1) (B2) (A1) (B2) (B2) (A1) (A1) (A2) (B1) (A1)
                 (B1) (B2) (A2) (A1) (B2) (B1) (A1) (A1) (B2) (B1)
                 (B2) (A1) (A2) (B2) (A2) (B1) (A1) (B2) (B2) (A1)
                 (A1) (B1) (A2) (A1) (A1) (B1) (B2) (A1) (A1) (B1)
                 (B2) (A2) (B2) (B2) (A1) (A2) (B1) (A1) (B2) (B1)
                 (B2) (A2) (B1) (A1) (A1) (B2) (B2) (A2) (A1) (B1)
                 (B2) (A1) (A1) (B2) (B1) (A1) (B1) (A2) (B2) (B1)
                 (A1) (A1) (A2) (A1) (B2) (B2) (A1)
 The electronic state is 1-A1.
 Alpha  occ. eigenvalues --  -20.59007  -1.29242  -0.64620  -0.55835  -0.50128
 Alpha virt. eigenvalues --    0.02701   0.04696   0.13360   0.16500   0.16834
 Alpha virt. eigenvalues --    0.18013   0.21309   0.24035   0.26494   0.29397
 Alpha virt. eigenvalues --    0.30511   0.36174   0.40958   0.43330   0.59395
 Alpha virt. eigenvalues --    0.64734   0.70613   0.73078   0.73773   0.78603
 Alpha virt. eigenvalues --    0.83492   0.88020   0.90656   0.92614   0.92750
 Alpha virt. eigenvalues --    0.93667   0.94632   0.98959   1.01100   1.05133
 Alpha virt. eigenvalues --    1.07473   1.13033   1.14080   1.31172   1.45478
 Alpha virt. eigenvalues --    1.51238   1.55344   1.70030   1.82576   1.83387
 Alpha virt. eigenvalues --    1.98319   2.24672   2.28755   2.31150   2.38730
 Alpha virt. eigenvalues --    2.39079   2.42904   2.62412   2.68170   2.69630
 Alpha virt. eigenvalues --    2.74191   2.80669   2.82961   3.41014   3.51640
 Alpha virt. eigenvalues --    3.92832   3.96539   4.05973   4.06998   4.16081
 Alpha virt. eigenvalues --    4.30700   4.31153   4.34799   4.42076   4.46807
 Alpha virt. eigenvalues --    4.54990   4.76306   4.80396   4.90787   5.09329
 Alpha virt. eigenvalues --    5.09907   5.32565   6.12575   6.53024   6.67507
 Alpha virt. eigenvalues --    6.74738   6.92678   7.01136   7.03064   7.22230
 Alpha virt. eigenvalues --    7.26286   7.32988   7.34073   7.73186   7.76831
 Alpha virt. eigenvalues --    8.01730  12.44558
          Condensed to atoms (all electrons):
               1          2          3
     1  O    8.086841   0.242569   0.242569
     2  H    0.242569   0.438207   0.033235
     3  H    0.242569   0.033235   0.438207
 Mulliken charges:
               1
     1  O   -0.571979
     2  H    0.285989
     3  H    0.285989
 Sum of Mulliken charges =  -0.00000
 Mulliken charges with hydrogens summed into heavy atoms:
               1
     1  O   -0.000000
 Electronic spatial extent (au):  <R**2>=             21.4164
 Charge=              0.0000 electrons
 Dipole moment (field-independent basis, Debye):
    X=             -0.0000    Y=              0.0000    Z=             -2.0965  Tot=              2.0965
 Quadrupole moment (field-independent basis, Debye-Ang):
   XX=             -7.8675   YY=             -3.9154   ZZ=             -6.2802
   XY=              0.0000   XZ=              0.0000   YZ=             -0.0000
 Traceless Quadrupole moment (field-independent basis, Debye-Ang):
   XX=             -1.8465   YY=              2.1056   ZZ=             -0.2592
   XY=              0.0000   XZ=              0.0000   YZ=             -0.0000
 Octapole moment (field-independent basis, Debye-Ang**2):
  XXX=              0.0000  YYY=              0.0000  ZZZ=             -1.0235  XYY=             -0.0000
  XXY=             -0.0000  XXZ=             -0.1585  XZZ=             -0.0000  YZZ=             -0.0000
  YYZ=             -1.8977  XYZ=             -0.0000
 Hexadecapole moment (field-independent basis, Debye-Ang**3):
 XXXX=             -7.1788 YYYY=             -6.9812 ZZZZ=             -8.4273 XXXY=             -0.0000
 XXXZ=             -0.0000 YYYX=              0.0000 YYYZ=             -0.0000 ZZZX=             -0.0000
 ZZZY=             -0.0000 XXYY=             -2.8880 XXZZ=             -2.6848 YYZZ=             -1.9651
 XXYZ=              0.0000 YYXZ=              0.0000 ZZXY=              0.0000
 N-N= 8.002366974166D+00 E-N=-1.963897580375D+02  KE= 7.551843321452D+01
 Symmetry A1   KE= 6.774013063255D+01
 Symmetry A2   KE= 8.475801826235D-31
 Symmetry B1   KE= 4.505636738847D+00
 Symmetry B2   KE= 3.272665843126D+00
 Leave Link  601 at Tue Feb 24 15:15:58 2026, MaxMem= 13421772800 cpu:               1.1 elap:               0.1
 (Enter /home/zhaixy/software/g16/l9999.exe)
 Unable to Open any file for archive entry.
 1\1\GINC-DESKTOP-UTAVF91\SP\RMP2-Full\Aug-CC-pVTZ\H2O1\ZHAIXY\24-Feb-2
 026\0\\#P MP2(full)/aug-cc-pVTZ\\Generated by Multiwfn\\0,1\O,0,0.,-0.
 07579,0.\H,0,0.86681,0.60144,0.\H,0,-0.86681,0.60144,0.\\Version=ES64L
 -G16RevC.01\State=1-A1\HF=-76.0216331\MP2=-76.3160238\RMSD=1.274e-09\P
 G=C02V [C2(O1),SGV(H2)]\\@
 The archive entry for this job was punched.


 FORGIVE MY NONSENSE AS I ALSO FORGIVE THOSE WHO THINK THEY TALK SENSE

                                                       -- ROBERT FROST
 Job cpu time:       0 days  0 hours  0 minutes 18.8 seconds.
 Elapsed time:       0 days  0 hours  0 minutes  1.6 seconds.
 File lengths (MBytes):  RWF=     10 Int=      0 D2E=      0 Chk=      2 Scr=      1
 Normal termination of Gaussian 16 at Tue Feb 24 15:15:58 2026.
